proyfinal/src/viki/013/experimentInOfficeAgust.take6.output/f37634a2-fab5-4a4d-8119-23b14382b48a.als.dat
{'cnf.clauses': '118081',
 'cnf.totvars': '69608',
 'conflict literals': '79',
 'conflicts': '28',
 'decisions': '8566',
 'memused.mb': '15.38',
 'outcome': 'UNSAT',
 'propagations': '33588',
 'restarts': '1',
 'solver.msecs': 33,
 'task.msecs': 86}
