proyfinal/src/viki/013/experimentInOfficeAgust.take6.output/f37634a2-fab5-4a4d-8119-23b14382b48a.als.out
Reading from standard input... Use '--help' for help.
============================[ Problem Statistics ]=============================
|                                                                             |
|  Number of variables:         69608                                         |
|  Number of clauses:          118081                                         |
|  Parse time:                   0.02 s                                       |
|                                                                             |
============================[ Search Statistics ]==============================
| Conflicts |          ORIGINAL         |          LEARNT          | Progress |
|           |    Vars  Clauses Literals |    Limit  Clauses Lit/Cl |          |
===============================================================================
===============================================================================
restarts              : 1
conflicts             : 28             (827 /sec)
decisions             : 8566           (0.00 % random) (253117 /sec)
propagations          : 33588          (992495 /sec)
conflict literals     : 79             (0.00 % deleted)
Memory used           : 15.38 MB
CPU time              : 0.033842 s

UNSATISFIABLE
